CPXPARAM_Read_DataCheck                          1
Found incumbent of value 0.000000 after 0.00 sec. (0.03 ticks)
Tried aggregator 1 time.
MIP Presolve modified 1 coefficients.
Reduced MIP has 216 rows, 1005 columns, and 5015 nonzeros.
Reduced MIP has 1005 binaries, 0 generals, 0 SOSs, and 0 indicators.
Presolve time = 0.00 sec. (1.88 ticks)
Probing time = 0.00 sec. (1.42 ticks)
Tried aggregator 1 time.
Reduced MIP has 216 rows, 1005 columns, and 5015 nonzeros.
Reduced MIP has 1005 binaries, 0 generals, 0 SOSs, and 0 indicators.
Presolve time = 0.00 sec. (2.25 ticks)
Probing time = 0.00 sec. (1.42 ticks)
Clique table members: 1000.
MIP emphasis: balance optimality and feasibility.
MIP search method: dynamic search.
Parallel mode: deterministic, using up to 4 threads.
Root relaxation solution time = 0.02 sec. (4.03 ticks)

        Nodes                                         Cuts/
   Node  Left     Objective  IInf  Best Integer    Best Bound    ItCnt     Gap

*     0+    0                            0.0000     6156.0000              --- 
      0     0     3400.2450     5        0.0000     3400.2450      321     --- 
*     0+    0                         1503.0000     3400.2450           126.23%
      0     0     2467.8235   218     1503.0000     Cuts: 154      685   64.19%
*     0+    0                         1920.0000     2467.8235            28.53%
      0     0        cutoff           1920.0000     1920.0000     1182    0.00%
Elapsed time = 0.13 sec. (100.06 ticks, tree = 0.01 MB, solutions = 3)

Clique cuts applied:  277
Cover cuts applied:  3
Implied bound cuts applied:  4
Mixed integer rounding cuts applied:  9
Zero-half cuts applied:  3

Root node processing (before b&c):
  Real time             =    0.13 sec. (100.14 ticks)
Parallel b&c, 4 threads:
  Real time             =    0.00 sec. (0.00 ticks)
  Sync time (average)   =    0.00 sec.
  Wait time (average)   =    0.00 sec.
                          ------------
Total (root+branch&cut) =    0.13 sec. (100.14 ticks)
